Version identifier: 22.1.0.0 | 2022-03-09 | 1a383f8ce
CPXPARAM_Read_DataCheck                          1
Tried aggregator 3 times.
MIP Presolve eliminated 2290 rows and 659 columns.
MIP Presolve modified 70 coefficients.
Aggregator did 1758 substitutions.
Reduced MIP has 607 rows, 1833 columns, and 4283 nonzeros.
Reduced MIP has 1823 binaries, 10 generals, 0 SOSs, and 0 indicators.
Presolve time = 0.02 sec. (12.99 ticks)
Probing fixed 20 vars, tightened 0 bounds.
Probing time = 0.01 sec. (2.26 ticks)
Tried aggregator 2 times.
Detecting symmetries...
MIP Presolve eliminated 22 rows and 27 columns.
Aggregator did 8 substitutions.
Reduced MIP has 577 rows, 1798 columns, and 4168 nonzeros.
Reduced MIP has 1788 binaries, 10 generals, 0 SOSs, and 0 indicators.
Presolve time = 0.01 sec. (4.41 ticks)
Probing time = 0.00 sec. (1.79 ticks)
Clique table members: 3836.
MIP emphasis: balance optimality and feasibility.
MIP search method: dynamic search.
Parallel mode: deterministic, using up to 8 threads.
Root relaxation solution time = 0.05 sec. (7.93 ticks)

        Nodes                                         Cuts/
   Node  Left     Objective  IInf  Best Integer    Best Bound    ItCnt     Gap

      0     0       10.4857   469                     10.4857      534         
*     0+    0                           18.0000       10.4857            41.75%
      0     0       17.0000   211       18.0000      Cuts: 56      917    5.56%
      0     0       17.0000   234       18.0000      Cuts: 15     1125    5.56%

Repeating presolve.
Tried aggregator 3 times.
MIP Presolve eliminated 94 rows and 709 columns.
MIP Presolve modified 3 coefficients.
Aggregator did 104 substitutions.
Reduced MIP has 379 rows, 985 columns, and 2341 nonzeros.
Reduced MIP has 985 binaries, 0 generals, 0 SOSs, and 0 indicators.
Presolve time = 0.01 sec. (3.55 ticks)
Probing fixed 18 vars, tightened 0 bounds.
Probing time = 0.01 sec. (5.27 ticks)
Tried aggregator 2 times.
MIP Presolve eliminated 2 rows and 20 columns.
MIP Presolve modified 1 coefficients.
Aggregator did 2 substitutions.
Reduced MIP has 375 rows, 963 columns, and 2293 nonzeros.
Reduced MIP has 963 binaries, 0 generals, 0 SOSs, and 0 indicators.
Presolve time = 0.00 sec. (2.29 ticks)
Probing fixed 1 vars, tightened 0 bounds.
Probing time = 0.01 sec. (4.23 ticks)
Tried aggregator 2 times.
Detecting symmetries...
MIP Presolve eliminated 2 rows and 2 columns.
Aggregator did 1 substitutions.
Reduced MIP has 372 rows, 960 columns, and 2284 nonzeros.
Reduced MIP has 960 binaries, 0 generals, 0 SOSs, and 0 indicators.
Presolve time = 0.00 sec. (2.46 ticks)
Represolve time = 0.04 sec. (23.57 ticks)
Probing time = 0.00 sec. (2.25 ticks)
Clique table members: 2153.
MIP emphasis: balance optimality and feasibility.
MIP search method: dynamic search.
Parallel mode: deterministic, using up to 8 threads.
Root relaxation solution time = 0.03 sec. (23.61 ticks)

        Nodes                                         Cuts/
   Node  Left     Objective  IInf  Best Integer    Best Bound    ItCnt     Gap

*     0+    0                           18.0000       17.0000             5.56%
      0     0       17.0000   234       18.0000       17.0000     2021    5.56%
*     0+    0                           17.0000       17.0000             0.00%
      0     0        cutoff             17.0000       17.0000     2021    0.00%
Elapsed time = 0.69 sec. (336.87 ticks, tree = 0.01 MB, solutions = 2)

Implied bound cuts applied:  2
Zero-half cuts applied:  7
Gomory fractional cuts applied:  8

Root node processing (before b&c):
  Real time             =    0.69 sec. (337.03 ticks)
Parallel b&c, 8 threads:
  Real time             =    0.00 sec. (0.00 ticks)
  Sync time (average)   =    0.00 sec.
  Wait time (average)   =    0.00 sec.
                          ------------
Total (root+branch&cut) =    0.69 sec. (337.03 ticks)

Version identifier: 22.1.0.0 | 2022-03-09 | 1a383f8ce
CPXPARAM_Read_DataCheck                          1
Tried aggregator 3 times.
MIP Presolve eliminated 2290 rows and 659 columns.
MIP Presolve modified 70 coefficients.
Aggregator did 1758 substitutions.
Reduced MIP has 607 rows, 1833 columns, and 4283 nonzeros.
Reduced MIP has 1823 binaries, 10 generals, 0 SOSs, and 0 indicators.
Presolve time = 0.02 sec. (12.99 ticks)
Probing fixed 20 vars, tightened 0 bounds.
Probing time = 0.00 sec. (2.26 ticks)
Tried aggregator 2 times.
Detecting symmetries...
MIP Presolve eliminated 22 rows and 27 columns.
Aggregator did 8 substitutions.
Reduced MIP has 577 rows, 1798 columns, and 4168 nonzeros.
Reduced MIP has 1788 binaries, 10 generals, 0 SOSs, and 0 indicators.
Presolve time = 0.01 sec. (4.41 ticks)
Probing time = 0.00 sec. (1.79 ticks)
Clique table members: 3836.
MIP emphasis: balance optimality and feasibility.
MIP search method: dynamic search.
Parallel mode: deterministic, using up to 8 threads.
Root relaxation solution time = 0.03 sec. (7.93 ticks)

        Nodes                                         Cuts/
   Node  Left     Objective  IInf  Best Integer    Best Bound    ItCnt     Gap

      0     0       10.4857   469                     10.4857      534         
*     0+    0                           18.0000       10.4857            41.75%
      0     0       17.0000   211       18.0000      Cuts: 56      917    5.56%
      0     0       17.0000   234       18.0000      Cuts: 15     1125    5.56%

Repeating presolve.
Tried aggregator 3 times.
MIP Presolve eliminated 94 rows and 709 columns.
MIP Presolve modified 3 coefficients.
Aggregator did 104 substitutions.
Reduced MIP has 379 rows, 985 columns, and 2341 nonzeros.
Reduced MIP has 985 binaries, 0 generals, 0 SOSs, and 0 indicators.
Presolve time = 0.00 sec. (3.55 ticks)
Probing fixed 18 vars, tightened 0 bounds.
Probing time = 0.01 sec. (5.27 ticks)
Tried aggregator 2 times.
MIP Presolve eliminated 2 rows and 20 columns.
MIP Presolve modified 1 coefficients.
Aggregator did 2 substitutions.
Reduced MIP has 375 rows, 963 columns, and 2293 nonzeros.
Reduced MIP has 963 binaries, 0 generals, 0 SOSs, and 0 indicators.
Presolve time = 0.00 sec. (2.29 ticks)
Probing fixed 1 vars, tightened 0 bounds.
Probing time = 0.01 sec. (4.23 ticks)
Tried aggregator 2 times.
Detecting symmetries...
MIP Presolve eliminated 2 rows and 2 columns.
Aggregator did 1 substitutions.
Reduced MIP has 372 rows, 960 columns, and 2284 nonzeros.
Reduced MIP has 960 binaries, 0 generals, 0 SOSs, and 0 indicators.
Presolve time = 0.00 sec. (2.46 ticks)
Represolve time = 0.03 sec. (23.57 ticks)
Probing time = 0.00 sec. (2.25 ticks)
Clique table members: 2153.
MIP emphasis: balance optimality and feasibility.
MIP search method: dynamic search.
Parallel mode: deterministic, using up to 8 threads.
Root relaxation solution time = 0.02 sec. (23.61 ticks)

        Nodes                                         Cuts/
   Node  Left     Objective  IInf  Best Integer    Best Bound    ItCnt     Gap

*     0+    0                           18.0000       17.0000             5.56%
      0     0       17.0000   234       18.0000       17.0000     2021    5.56%
*     0+    0                           17.0000       17.0000             0.00%
      0     0        cutoff             17.0000       17.0000     2021    0.00%
Elapsed time = 0.66 sec. (336.87 ticks, tree = 0.01 MB, solutions = 2)

Implied bound cuts applied:  2
Zero-half cuts applied:  7
Gomory fractional cuts applied:  8

Root node processing (before b&c):
  Real time             =    0.66 sec. (337.03 ticks)
Parallel b&c, 8 threads:
  Real time             =    0.00 sec. (0.00 ticks)
  Sync time (average)   =    0.00 sec.
  Wait time (average)   =    0.00 sec.
                          ------------
Total (root+branch&cut) =    0.66 sec. (337.03 ticks)
Version identifier: 22.1.0.0 | 2022-03-09 | 1a383f8ce
CPXPARAM_Read_DataCheck                          1
1 of 1 MIP starts provided solutions.
MIP start 'm1' defined initial solution with objective 17.0000.
Tried aggregator 3 times.
MIP Presolve eliminated 2290 rows and 659 columns.
MIP Presolve modified 70 coefficients.
Aggregator did 1758 substitutions.
Reduced MIP has 607 rows, 1833 columns, and 4283 nonzeros.
Reduced MIP has 1823 binaries, 10 generals, 0 SOSs, and 0 indicators.
Presolve time = 0.01 sec. (12.99 ticks)
Probing fixed 20 vars, tightened 0 bounds.
Probing time = 0.01 sec. (2.26 ticks)
Tried aggregator 2 times.
Detecting symmetries...
MIP Presolve eliminated 22 rows and 27 columns.
Aggregator did 8 substitutions.
Reduced MIP has 577 rows, 1798 columns, and 4168 nonzeros.
Reduced MIP has 1788 binaries, 10 generals, 0 SOSs, and 0 indicators.
Presolve time = 0.01 sec. (4.41 ticks)
Probing time = 0.00 sec. (1.79 ticks)
Clique table members: 3836.
MIP emphasis: balance optimality and feasibility.
MIP search method: dynamic search.
Parallel mode: deterministic, using up to 8 threads.
Root relaxation solution time = 0.01 sec. (7.93 ticks)

        Nodes                                         Cuts/
   Node  Left     Objective  IInf  Best Integer    Best Bound    ItCnt     Gap

*     0+    0                           17.0000        0.0000           100.00%
      0     0       10.4857   469       17.0000       10.4857      534   38.32%
      0     0        cutoff             17.0000                    545    0.00%
Elapsed time = 0.18 sec. (71.61 ticks, tree = 0.01 MB, solutions = 1)

Zero-half cuts applied:  12
Gomory fractional cuts applied:  7

Root node processing (before b&c):
  Real time             =    0.18 sec. (71.75 ticks)
Parallel b&c, 8 threads:
  Real time             =    0.00 sec. (0.00 ticks)
  Sync time (average)   =    0.00 sec.
  Wait time (average)   =    0.00 sec.
                          ------------
Total (root+branch&cut) =    0.18 sec. (71.75 ticks)
Version identifier: 22.1.0.0 | 2022-03-09 | 1a383f8ce
CPXPARAM_Read_DataCheck                          1
1 of 1 MIP starts provided solutions.
MIP start 'm1' defined initial solution with objective 17.0000.
Tried aggregator 3 times.
MIP Presolve eliminated 2290 rows and 659 columns.
MIP Presolve modified 70 coefficients.
Aggregator did 1758 substitutions.
Reduced MIP has 607 rows, 1833 columns, and 4283 nonzeros.
Reduced MIP has 1823 binaries, 10 generals, 0 SOSs, and 0 indicators.
Presolve time = 0.01 sec. (12.99 ticks)
Probing fixed 20 vars, tightened 0 bounds.
Probing time = 0.00 sec. (2.26 ticks)
Tried aggregator 2 times.
Detecting symmetries...
MIP Presolve eliminated 22 rows and 27 columns.
Aggregator did 8 substitutions.
Reduced MIP has 577 rows, 1798 columns, and 4168 nonzeros.
Reduced MIP has 1788 binaries, 10 generals, 0 SOSs, and 0 indicators.
Presolve time = 0.00 sec. (4.41 ticks)
Probing time = 0.00 sec. (1.79 ticks)
Clique table members: 3836.
MIP emphasis: balance optimality and feasibility.
MIP search method: dynamic search.
Parallel mode: deterministic, using up to 8 threads.
Root relaxation solution time = 0.02 sec. (7.93 ticks)

        Nodes                                         Cuts/
   Node  Left     Objective  IInf  Best Integer    Best Bound    ItCnt     Gap

*     0+    0                           17.0000        0.0000           100.00%
      0     0       10.4857   469       17.0000       10.4857      534   38.32%
      0     0        cutoff             17.0000                    545    0.00%
Elapsed time = 0.17 sec. (71.61 ticks, tree = 0.01 MB, solutions = 1)

Zero-half cuts applied:  12
Gomory fractional cuts applied:  7

Root node processing (before b&c):
  Real time             =    0.18 sec. (71.75 ticks)
Parallel b&c, 8 threads:
  Real time             =    0.00 sec. (0.00 ticks)
  Sync time (average)   =    0.00 sec.
  Wait time (average)   =    0.00 sec.
                          ------------
Total (root+branch&cut) =    0.18 sec. (71.75 ticks)
